NAME : problems/30-tsp/instance-4.tsp
COMMENT : No Comment
TYPE : TSP
DIMENSION: 30
EDGE_WEIGHT_TYPE : EUC_2D
NODE_COORD_SECTION
1 2628 7378 
2 5035 6358 
3 6497 2537 
4 4442 8518 
5 2862 3089 
6 5722 4763 
7 1399 8636 
8 9644 243 
9 4470 7497 
10 7945 2443 
11 6183 5500 
12 1063 6614 
13 6711 9453 
14 9203 2324 
15 9475 1743 
16 2703 4315 
17 1333 826 
18 9774 3646 
19 5839 473 
20 9844 990 
21 1473 6632 
22 8453 1114 
23 6938 6476 
24 6534 6478 
25 4453 1132 
26 9881 7759 
27 9792 2622 
28 8429 7423 
29 75 5868 
30 4234 4156 
EOF
